RT is False
Default write of storage_offers_DA.csv just to have a file (but constraint should be inactive)
Reading model...
...model read.
creating competitive generators file...
...competitive generators recorded.
Loading data...
.. day-ahead data with real-time VRE data read.
Compiling instance...
...instance created.
Creating Offer Mitigation (model will solve as dispatch if TRUE)...
NOTE: storage offers will not be mitigated
...storage offer mitigation file created
Converting model to MPEC...
...converted
NOTE: initial MIP solve with only storage competitive to get feasible solution
Solving...

Welcome to IBM(R) ILOG(R) CPLEX(R) Interactive Optimizer 12.9.0.0
  with Simplex, Mixed Integer & Barrier Optimizers
5725-A06 5725-A29 5724-Y48 5724-Y49 5724-Y54 5724-Y55 5655-Y21
Copyright IBM Corp. 1988, 2019.  All Rights Reserved.

Type 'help' for a list of available commands.
Type 'help' followed by a command name for more
information on commands.

CPLEX> Logfile 'cplex.log' closed.
Logfile 'C:\Users\llavin\Desktop\test919\logs\tmpd5k_zz9v.cplex.log' open.
CPLEX> New value for parallel optimization mode: -1
CPLEX> New value for mixed integer optimality gap tolerance: 0.01
CPLEX> New value for integrality tolerance: 1e-09
CPLEX> New value for feasibility tolerance: 0.1
CPLEX> New value for deterministic time limit in ticks: 100000
CPLEX> Problem 'C:\Users\llavin\Desktop\test919\logs\tmpnmohsn_y.pyomo.lp' read.
Read time = 0.22 sec. (13.86 ticks)
CPLEX> Problem name         : C:\Users\llavin\Desktop\test919\logs\tmpnmohsn_y.pyomo.lp
Objective sense      : Maximize
Variables            :   53321  [Nneg: 1,  Box: 21806,  Free: 4416,
                                 Binary: 27098]
Objective nonzeros   :    8980
Linear constraints   :  122164  [Less: 40983,  Greater: 58612,  Equal: 22569]
  Nonzeros           :  288505
  RHS nonzeros       :   66982

Variables            : Min LB: -5000.000        Max UB: 1000000.       
Objective nonzeros   : Min   : 0.2583333        Max   : 788.2333       
Linear constraints   :
  Nonzeros           : Min   : 0.2583333        Max   : 1000000.       
  RHS nonzeros       : Min   : 0.2583333        Max   : 1000000.       
CPLEX> CPXPARAM_Parallel                                -1
CPXPARAM_Simplex_Tolerances_Feasibility          0.10000000000000001
CPXPARAM_DetTimeLimit                            100000
CPXPARAM_MIP_Tolerances_MIPGap                   0.01
CPXPARAM_MIP_Tolerances_Integrality              1.0000000000000001e-09
Tried aggregator 3 times.
MIP Presolve eliminated 88048 rows and 18904 columns.
MIP Presolve added 3378 rows and 0 columns.
MIP Presolve modified 23604 coefficients.
Aggregator did 12867 substitutions.
Reduced MIP has 24627 rows, 20994 columns, and 68998 nonzeros.
Reduced MIP has 8303 binaries, 0 generals, 0 SOSs, and 0 indicators.
Presolve time = 0.30 sec. (172.88 ticks)
Probing fixed 437 vars, tightened 2965 bounds.
Probing time = 1.28 sec. (924.87 ticks)
Tried aggregator 2 times.
MIP Presolve eliminated 975 rows and 875 columns.
MIP Presolve modified 2190 coefficients.
Aggregator did 56 substitutions.
Reduced MIP has 23596 rows, 20063 columns, and 66000 nonzeros.
Reduced MIP has 7866 binaries, 0 generals, 0 SOSs, and 0 indicators.
Presolve time = 0.09 sec. (67.31 ticks)
Probing fixed 0 vars, tightened 1 bounds.
Probing time = 0.05 sec. (20.18 ticks)
Clique table members: 6275.
MIP emphasis: balance optimality and feasibility.
MIP search method: dynamic search.
Parallel mode: opportunistic, using up to 32 threads.
Root relaxation solution time = 0.44 sec. (517.77 ticks)

        Nodes                                         Cuts/
   Node  Left     Objective  IInf  Best Integer    Best Bound    ItCnt     Gap

      0     0      533.2797   370                    533.2797     6674         
      0     2      533.2797     1                    533.2797     6674         
Elapsed time = 12.47 sec. (4637.24 ticks, tree = 0.02 MB, solutions = 1)
*     2+    1                            0.0000      533.2797              --- 
     48     2        cutoff              0.0000      533.2797     6896     --- 
    110     4      533.2797     1        0.0000      533.2797     6920     --- 
    149     2        cutoff              0.0000      533.2797     7104     --- 
    201    13      533.2797     1        0.0000      533.2797     7265     --- 
    225     6      533.2797     1        0.0000      533.2797     7147     --- 
    264    11        cutoff              0.0000      533.2797     7268     --- 
    308    14      533.2797     1        0.0000      533.2797     7306     --- 
    329    12        cutoff              0.0000      533.2797     7266     --- 
    372    18        cutoff              0.0000      533.2797     7353     --- 
    508    31      533.2797     3        0.0000      533.2797     7478     --- 
Elapsed time = 19.00 sec. (7807.72 ticks, tree = 0.02 MB, solutions = 1)
    623    19      533.2797     1        0.0000      533.2797     7384     --- 
    761    84        cutoff              0.0000      533.2797     7697     --- 
    889    35      533.2797     1        0.0000      533.2797     7499     --- 
   1027   154        cutoff              0.0000      533.2797     7952     --- 
   1145   151        cutoff              0.0000      533.2797     7946     --- 
   1262   121      533.2797     1        0.0000      533.2797     7831     --- 
   1375   210      533.2797     1        0.0000      533.2797     8167     --- 
   1480   192      533.2797     1        0.0000      533.2797     8096     --- 
   1595   228      533.2797     1        0.0000      533.2797     8249     --- 
   1720   243      533.2797     1        0.0000      533.2797     8316     --- 
Elapsed time = 28.47 sec. (17423.48 ticks, tree = 0.86 MB, solutions = 1)
   1848   281      533.2797     1        0.0000      533.2797     8502     --- 
   1990   281        cutoff              0.0000      533.2797     8505     --- 
   2124   299      533.2797     1        0.0000      533.2797     8674     --- 
   2241   298      533.2797     1        0.0000      533.2797     8661     --- 
   2358   298        cutoff              0.0000      533.2797     8677     --- 
   2470   318      533.2797     1        0.0000      533.2797     8863     --- 
   2582   317        cutoff              0.0000      533.2797     8864     --- 
   2696   312        cutoff              0.0000      533.2797     8816     --- 
   2809   321        cutoff              0.0000      533.2797     8980     --- 
   2921   325      533.2797     1        0.0000      533.2797     9140     --- 
Elapsed time = 39.48 sec. (27114.75 ticks, tree = 1.17 MB, solutions = 1)
   3019   323      533.2797     1        0.0000      533.2797     9022     --- 
   3120   324        cutoff              0.0000      533.2797     9129     --- 
   3204   324      533.2797     3        0.0000      533.2797     9173     --- 
   3286   324        cutoff              0.0000      533.2797     9175     --- 
   3391   326      533.2797     1        0.0000      533.2797     9174     --- 
*  3456   319      integral     0      533.2797      533.2797     9274    0.00%
   3471   328        cutoff            533.2797      533.2797     9321    0.00%
   3522   331      533.2797     1      533.2797      533.2797     9323    0.00%
   3567   330      533.2797     1      533.2797      533.2797     9408    0.00%
   3604   330      533.2797     1      533.2797      533.2797     9335    0.00%
   3614   331      533.2797     1      533.2797      533.2797     9416    0.00%
Elapsed time = 44.98 sec. (37013.52 ticks, tree = 1.19 MB, solutions = 5)

Mixed integer rounding cuts applied:  1

Root node processing (before b&c):
  Real time             =    6.33 sec. (4597.72 ticks)
Parallel b&c, 32 threads:
  Real time             =   39.09 sec. (32423.71 ticks)
  Sync time (average)   =    8.71 sec.
  Wait time (average)   =    0.00 sec.
                          ------------
Total (root+branch&cut) =   45.42 sec. (37021.43 ticks)

Solution pool: 5 solutions saved.

MIP - Integer optimal solution:  Objective =  5.3327967047e+02
Solution time =   45.47 sec.  Iterations = 10590  Nodes = 3615
Deterministic time = 37021.59 ticks  (814.23 ticks/sec)

CPLEX> Incumbent solution written to file 'C:\Users\llavin\Desktop\test919\logs\tmpq64xathb.cplex.sol'.
CPLEX> NOTE: no warmstart specified for MIP iteration, default behavior is true
NOTE: resolving with all competitive generators using storage-only solution to warmstart
Solving...

Welcome to IBM(R) ILOG(R) CPLEX(R) Interactive Optimizer 12.9.0.0
  with Simplex, Mixed Integer & Barrier Optimizers
5725-A06 5725-A29 5724-Y48 5724-Y49 5724-Y54 5724-Y55 5655-Y21
Copyright IBM Corp. 1988, 2019.  All Rights Reserved.

Type 'help' for a list of available commands.
Type 'help' followed by a command name for more
information on commands.

CPLEX> Logfile 'cplex.log' closed.
Logfile 'C:\Users\llavin\Desktop\test919\logs\tmpj7kryzvg.cplex.log' open.
CPLEX> New value for parallel optimization mode: -1
CPLEX> New value for mixed integer optimality gap tolerance: 0.01
CPLEX> New value for integrality tolerance: 1e-09
CPLEX> New value for feasibility tolerance: 0.1
CPLEX> New value for deterministic time limit in ticks: 100000
CPLEX> Problem 'C:\Users\llavin\Desktop\test919\logs\tmpqt9gslxf.pyomo.lp' read.
Read time = 0.22 sec. (13.88 ticks)
CPLEX> MIP start file 'C:\Users\llavin\Desktop\test919\logs\tmptg4nijqf.cplex.mst' read.
CPLEX> Problem name         : C:\Users\llavin\Desktop\test919\logs\tmpqt9gslxf.pyomo.lp
Objective sense      : Maximize
Variables            :   54041  [Nneg: 1,  Box: 22526,  Free: 4416,
                                 Binary: 27098]
Objective nonzeros   :    9700
Linear constraints   :  122164  [Less: 40983,  Greater: 58612,  Equal: 22569]
  Nonzeros           :  288505
  RHS nonzeros       :   66982

Variables            : Min LB: -5000.000        Max UB: 1000000.       
Objective nonzeros   : Min   : 0.2583333        Max   : 788.2333       
Linear constraints   :
  Nonzeros           : Min   : 0.2583333        Max   : 1000000.       
  RHS nonzeros       : Min   : 0.2583333        Max   : 1000000.       
CPLEX> CPXPARAM_Parallel                                -1
CPXPARAM_Simplex_Tolerances_Feasibility          0.10000000000000001
CPXPARAM_DetTimeLimit                            100000
CPXPARAM_MIP_Tolerances_MIPGap                   0.01
CPXPARAM_MIP_Tolerances_Integrality              1.0000000000000001e-09
Warning:  No solution found from 1 MIP starts.
Retaining values of one MIP start for possible repair.
Tried aggregator 3 times.
MIP Presolve eliminated 88048 rows and 19624 columns.
MIP Presolve added 3378 rows and 0 columns.
MIP Presolve modified 23604 coefficients.
Aggregator did 12867 substitutions.
Reduced MIP has 24627 rows, 20994 columns, and 68998 nonzeros.
Reduced MIP has 8303 binaries, 0 generals, 0 SOSs, and 0 indicators.
Presolve time = 0.28 sec. (173.24 ticks)
Probing fixed 437 vars, tightened 2965 bounds.
Probing time = 1.28 sec. (924.87 ticks)
Tried aggregator 2 times.
MIP Presolve eliminated 975 rows and 875 columns.
MIP Presolve modified 2190 coefficients.
Aggregator did 56 substitutions.
Reduced MIP has 23596 rows, 20063 columns, and 66000 nonzeros.
Reduced MIP has 7866 binaries, 0 generals, 0 SOSs, and 0 indicators.
Presolve time = 0.09 sec. (67.31 ticks)
Probing fixed 0 vars, tightened 1 bounds.
Probing time = 0.05 sec. (20.18 ticks)
Clique table members: 6275.
MIP emphasis: balance optimality and feasibility.
MIP search method: dynamic search.
Parallel mode: opportunistic, using up to 32 threads.
Root relaxation solution time = 0.44 sec. (517.77 ticks)

        Nodes                                         Cuts/
   Node  Left     Objective  IInf  Best Integer    Best Bound    ItCnt     Gap

      0     0      533.2797   370                    533.2797     6674         
Repair heuristic found nothing.
      0     2      533.2797     1                    533.2797     6674         
Elapsed time = 12.78 sec. (4708.94 ticks, tree = 0.02 MB, solutions = 1)
*     2+    1                            0.0000      533.2797              --- 
     44     4      533.2797     1        0.0000      533.2797     6855     --- 
    129     4      533.2797     1        0.0000      533.2797     6986     --- 
    171     6      533.2797     1        0.0000      533.2797     7091     --- 
    208    19        cutoff              0.0000      533.2797     7248     --- 
    242    19        cutoff              0.0000      533.2797     7223     --- 
    277     4        cutoff              0.0000      533.2797     7085     --- 
    313    14        cutoff              0.0000      533.2797     7168     --- 
    353    31      533.2797     1        0.0000      533.2797     7323     --- 
    380    20        cutoff              0.0000      533.2797     7280     --- 
    543    29        cutoff              0.0000      533.2797     7380     --- 
Elapsed time = 18.78 sec. (7852.13 ticks, tree = 0.02 MB, solutions = 1)
    685    31      533.2797     1        0.0000      533.2797     7382     --- 
    830    90      533.2797     1        0.0000      533.2797     7596     --- 
    953   140        cutoff              0.0000      533.2797     7824     --- 
   1077   139        cutoff              0.0000      533.2797     7818     --- 
   1220   127      533.2797     1        0.0000      533.2797     7758     --- 
   1332   153      533.2797     1        0.0000      533.2797     7875     --- 
   1452   195      533.2797     1        0.0000      533.2797     8047     --- 
   1591   188      533.2797     3        0.0000      533.2797     8011     --- 
   1711   245      533.2797     1        0.0000      533.2797     8338     --- 
   1834   234      533.2797     1        0.0000      533.2797     8283     --- 
Elapsed time = 28.38 sec. (17454.62 ticks, tree = 0.74 MB, solutions = 1)
   1956   230      533.2797     1        0.0000      533.2797     8262     --- 
   2078   234      533.2797     1        0.0000      533.2797     8282     --- 
   2209   248      533.2797     1        0.0000      533.2797     8372     --- 
   2344   280        cutoff              0.0000      533.2797     8637     --- 
   2465   282        cutoff              0.0000      533.2797     8665     --- 
   2582   289      533.2797     1        0.0000      533.2797     8755     --- 
   2695   295        cutoff              0.0000      533.2797     8943     --- 
   2809   294      533.2797     1        0.0000      533.2797     8876     --- 
   2919   299        cutoff              0.0000      533.2797     9063     --- 
   3021   292      533.2797     1        0.0000      533.2797     8853     --- 
Elapsed time = 39.92 sec. (27063.58 ticks, tree = 0.94 MB, solutions = 1)
   3120   299        cutoff              0.0000      533.2797     9068     --- 
   3219   300      533.2797     1        0.0000      533.2797     9069     --- 
   3314   305      533.2797     3        0.0000      533.2797     9212     --- 
   3410   299        cutoff              0.0000      533.2797     9043     --- 
   3510   303        cutoff              0.0000      533.2797     9188     --- 
   3596   307        cutoff              0.0000      533.2797     9352     --- 
*  3607   296      integral     0      533.2797      533.2797     9225    0.00%
   3671   302        cutoff            533.2797      533.2797     9163    0.00%
   3725   307        cutoff            533.2797      533.2797     9336    0.00%
   3765   309      533.2797     1      533.2797      533.2797     9331    0.00%
   3806   308      533.2797     1      533.2797      533.2797     9396    0.00%
Elapsed time = 45.77 sec. (36767.11 ticks, tree = 1.07 MB, solutions = 3)
   3823   312      533.2797     1      533.2797      533.2797     9478    0.00%

Mixed integer rounding cuts applied:  1

Root node processing (before b&c):
  Real time             =    6.64 sec. (4668.71 ticks)
Parallel b&c, 32 threads:
  Real time             =   40.05 sec. (33857.93 ticks)
  Sync time (average)   =    7.68 sec.
  Wait time (average)   =    0.00 sec.
                          ------------
Total (root+branch&cut) =   46.69 sec. (38526.64 ticks)

Solution pool: 3 solutions saved.

MIP - Integer optimal solution:  Objective =  5.3327967047e+02
Solution time =   46.70 sec.  Iterations = 10817  Nodes = 3832
Deterministic time = 38526.79 ticks  (824.93 ticks/sec)

CPLEX> Incumbent solution written to file 'C:\Users\llavin\Desktop\test919\logs\tmpvmwvpd_5.cplex.sol'.
CPLEX> Exporting results... 
